Results/Experiment 1 Results/New Benchmark/RES_40/output_p1_0.00_p2_0.00_n_40_12.txt
solutions: 5184 nodes: 9418  modelTime: 125  solveTime: 136  totalTime: 266  modelSize: 7389  readTime: 5 matchingSize: 20
